12 48 3 10
6 6 9 9 7 20 20 7 9 20 3 7 15 1 17 6 14 12 6 13 5 13 7 8 7 16 5 5 19 11 20 7 20 7 15 3 9 12 4 10 14 18 8 2 1 5 3 12 
7.6 15.25 6.65 11.51 10.06 6.15 13.62 5.95 1.7 10.49 11.85 5.78 13.66 13.48 1.5 7.89 5.83 7.02 5.7 5.2 2.83 8.81 8.46 7.7 11.2 0.21 2.96 0.3 15.54 7.31 6.07 2.07 0.22 10.62 2.56 0.57 2.78 8.02 11.31 0.51 0.44 12.13 7.16 2.02 15.45 0.3 1.11 0.72 
6.07 11.85 6.03 12.3 13.72 8.55 14.01 1.46 15.87 2.26 7.26 7.91 15.48 9.13 7.63 6.45 12.52 15.62 5 1.86 4.28 7.78 6.35 12.13 5.36 4.99 4.79 2.74 11.52 13.54 14.57 11 7.25 2.68 9.57 3.07 12.24 5.09 1.44 6.21 1.87 0.01 13.07 1 14.83 10.51 8.59 11.27 
5.78 1.19 11.85 10.95 9.19 6.19 0.92 7.11 11.43 5.53 2.54 1.77 15.82 14.05 7.65 14.32 13.48 6.81 11.2 9.11 0.88 9.63 15.79 1.87 7.31 8.44 2.02 8.57 9.92 7.69 10.55 3.43 0.34 5.33 11.07 4.87 0.98 7.81 4.25 15.2 7.71 14 15.95 4.9 11.67 9.49 15.09 12.35 
8 8 8 8 8 8 8 8 8 8 8 8 8 8 8 8 8 8 8 8 8 8 8 8 8 8 8 8 8 8 8 8 8 8 8 8 8 8 8 8 8 8 8 8 8 8 8 8 
2.43 3.53 13.87 2.99 14.19 2 5.8 15.25 15.73 8.05 2.31 0.14 0.11 16 0.47 5.59 8.62 3.14 6.45 6.67 9.24 0.37 4.03 9.33 5.53 12.35 7.89 11.49 1.2 6.94 10.57 10.21 7.19 13.19 5.22 8.82 15.37 10.34 0.88 0.71 12.33 9.59 11.78 5.46 5.95 15.98 11.18 11.93 
2.31 13.2 14.13 8.84 6.94 0.14 11.36 7.07 7.87 1.22 3.89 7.37 7.03 9.66 2.28 0.4 5.12 5.79 8.61 4.58 13.88 14.74 4.96 3.04 15.5 6.21 14.72 4.73 2.62 6.6 11.11 5.53 15.57 9.63 12.71 4.28 11.95 4.62 0.12 5.69 11.42 15.78 15.62 12.16 10.49 12.35 14.25 15.71 
2.12 4.88 11.29 2.38 7.44 8.23 7.12 1.33 4.56 6.49 7.16 11.09 9.95 6.64 12.9 9.61 7.61 9.42 4.49 11.3 14.71 15.76 10.34 11.16 0.2 13.67 9.21 1.48 2.64 11.53 0.89 5.09 8.85 5.39 2 9.23 5.1 12.41 7.52 14.99 10.47 15.45 4.5 4.57 4.88 4.79 10.37 8.33 
7.85 15.93 3.59 15.84 0.15 12.62 10.7 6.23 5.66 4.89 7.23 14.29 9.45 9.09 4.98 12.03 15.13 13.75 4.13 6.64 2.38 5.01 10.29 0.27 4.58 7.64 11.07 6.93 2.14 8.71 0.4 9.73 4.02 0.23 2.37 3.71 3.36 8.76 9.29 6.07 4.49 10.87 10.74 11.99 12.76 13.83 2.46 4.74 
0.73 0.32 7.95 14.88 4.39 2.67 0.76 6.71 2.14 2.37 2.12 9.82 14.41 14.15 9.48 13.31 3.12 7.5 3.65 13.5 4.57 15.16 14.87 4.26 0.24 7.95 10.87 0.71 4.13 10.34 8.27 15.31 1.57 11.56 2.08 2.48 9.39 5.79 6.81 2.88 12.5 15.75 5.93 8.32 8.66 9.95 8.55 4.07 
13.57 7.72 3.62 15.42 5.94 0.51 15.82 9.79 8.03 8.76 4.77 12.69 4.45 9.97 5.8 15.6 1 2.34 13.08 10.33 5.19 15.16 10.48 10.88 14.43 6.91 13.22 0.26 12.81 4.45 8.01 3.2 3.23 5.72 0.84 6.28 1.26 4.55 5.18 4.38 14.01 8.26 0.18 14.76 5.43 3.86 8.09 2.82 
8.72 1.3 3.71 8.83 11.64 2.9 11.72 13.21 1.96 14.6 9.3 7.48 3.46 7.34 3.51 14.51 11.92 11.53 3.94 10.46 3.07 12.65 12.94 0.16 6.14 3.75 12.45 2.19 1.41 10.79 10.4 10.38 4.01 9.43 5.98 1.47 14.84 12.75 8 6.64 5.72 11.85 11.66 12.42 2.06 0.92 12.33 5.1 
10.58 13 3.89 2.42 12.9 12.54 11.93 14.62 7.99 6.19 11.39 0.19 14.12 14.76 12.13 2.45 0.79 6.16 6.36 2.08 14.65 4.98 13.24 5.78 14.68 4.03 4.9 9.44 5.2 14.21 1.63 14.61 8.69 4.54 1.76 12.75 4.54 0.61 13.48 1.91 5.55 11.23 2.89 10.4 3.68 12.09 0.47 12.29 
1 1 1 1 1 1 1 1 1 1 1 1 1 1 1 1 1 1 1 1 1 1 1 1 1 1 1 1 1 1 1 1 1 1 1 1 1 1 1 1 1 1 1 1 1 1 1 1 
1 1 1 1 1 1 1 1 1 1 1 1 1 1 1 1 1 1 1 1 1 1 1 1 1 1 1 1 1 1 1 1 1 1 1 1 1 1 1 1 1 1 1 1 1 1 1 1 
1 1 1 1 1 1 1 1 1 1 1 1 1 1 1 1 1 1 1 1 1 1 1 1 1 1 1 1 1 1 1 1 1 1 1 1 1 1 1 1 1 1 1 1 1 1 1 1 
1 1 1 1 1 1 1 1 1 1 1 1 1 1 1 1 1 1 1 1 1 1 1 1 1 1 1 1 1 1 1 1 1 1 1 1 1 1 1 1 1 1 1 1 1 1 1 1 
1 1 1 1 1 1 1 1 1 1 1 1 1 1 1 1 1 1 1 1 1 1 1 1 1 1 1 1 1 1 1 1 1 1 1 1 1 1 1 1 1 1 1 1 1 1 1 1 
1 1 1 1 1 1 1 1 1 1 1 1 1 1 1 1 1 1 1 1 1 1 1 1 1 1 1 1 1 1 1 1 1 1 1 1 1 1 1 1 1 1 1 1 1 1 1 1 
1 1 1 1 1 1 1 1 1 1 1 1 1 1 1 1 1 1 1 1 1 1 1 1 1 1 1 1 1 1 1 1 1 1 1 1 1 1 1 1 1 1 1 1 1 1 1 1 
1 1 1 1 1 1 1 1 1 1 1 1 1 1 1 1 1 1 1 1 1 1 1 1 1 1 1 1 1 1 1 1 1 1 1 1 1 1 1 1 1 1 1 1 1 1 1 1 
1 1 1 1 1 1 1 1 1 1 1 1 1 1 1 1 1 1 1 1 1 1 1 1 1 1 1 1 1 1 1 1 1 1 1 1 1 1 1 1 1 1 1 1 1 1 1 1 
1 1 1 1 1 1 1 1 1 1 1 1 1 1 1 1 1 1 1 1 1 1 1 1 1 1 1 1 1 1 1 1 1 1 1 1 1 1 1 1 1 1 1 1 1 1 1 1 
1 1 1 1 1 1 1 1 1 1 1 1 1 1 1 1 1 1 1 1 1 1 1 1 1 1 1 1 1 1 1 1 1 1 1 1 1 1 1 1 1 1 1 1 1 1 1 1 
1 1 1 1 1 1 1 1 1 1 1 1 1 1 1 1 1 1 1 1 1 1 1 1 1 1 1 1 1 1 1 1 1 1 1 1 1 1 1 1 1 1 1 1 1 1 1 1 
0.01 0.01 0.01 0.01 0.01 0.01 0.01 0.01 0.01 0.01 0.01 0.01 0.01 0.01 0.01 0.01 0.01 0.01 0.01 0.01 0.01 0.01 0.01 0.01 0.01 0.01 0.01 0.01 0.01 0.01 0.01 0.01 0.01 0.01 0.01 0.01 0.01 0.01 0.01 0.01 0.01 0.01 0.01 0.01 0.01 0.01 0.01 0.01 
0.02 0.02 0.02 0.02 0.02 0.02 0.02 0.02 0.02 0.02 0.02 0.02 0.02 0.02 0.02 0.02 0.02 0.02 0.02 0.02 0.02 0.02 0.02 0.02 0.02 0.02 0.02 0.02 0.02 0.02 0.02 0.02 0.02 0.02 0.02 0.02 0.02 0.02 0.02 0.02 0.02 0.02 0.02 0.02 0.02 0.02 0.02 0.02 
0.03 0.03 0.03 0.03 0.03 0.03 0.03 0.03 0.03 0.03 0.03 0.03 0.03 0.03 0.03 0.03 0.03 0.03 0.03 0.03 0.03 0.03 0.03 0.03 0.03 0.03 0.03 0.03 0.03 0.03 0.03 0.03 0.03 0.03 0.03 0.03 0.03 0.03 0.03 0.03 0.03 0.03 0.03 0.03 0.03 0.03 0.03 0.03 
0.04 0.04 0.04 0.04 0.04 0.04 0.04 0.04 0.04 0.04 0.04 0.04 0.04 0.04 0.04 0.04 0.04 0.04 0.04 0.04 0.04 0.04 0.04 0.04 0.04 0.04 0.04 0.04 0.04 0.04 0.04 0.04 0.04 0.04 0.04 0.04 0.04 0.04 0.04 0.04 0.04 0.04 0.04 0.04 0.04 0.04 0.04 0.04 
0.125 0.125 0.125 0.125 0.125 0.125 0.125 0.125 0.125 0.125 0.125 0.125 0.125 0.125 0.125 0.125 0.125 0.125 0.125 0.125 0.125 0.125 0.125 0.125 0.125 0.125 0.125 0.125 0.125 0.125 0.125 0.125 0.125 0.125 0.125 0.125 0.125 0.125 0.125 0.125 0.125 0.125 0.125 0.125 0.125 0.125 0.125 0.125 
0.25 0.25 0.25 0.25 0.25 0.25 0.25 0.25 0.25 0.25 0.25 0.25 0.25 0.25 0.25 0.25 0.25 0.25 0.25 0.25 0.25 0.25 0.25 0.25 0.25 0.25 0.25 0.25 0.25 0.25 0.25 0.25 0.25 0.25 0.25 0.25 0.25 0.25 0.25 0.25 0.25 0.25 0.25 0.25 0.25 0.25 0.25 0.25 
0.375 0.375 0.375 0.375 0.375 0.375 0.375 0.375 0.375 0.375 0.375 0.375 0.375 0.375 0.375 0.375 0.375 0.375 0.375 0.375 0.375 0.375 0.375 0.375 0.375 0.375 0.375 0.375 0.375 0.375 0.375 0.375 0.375 0.375 0.375 0.375 0.375 0.375 0.375 0.375 0.375 0.375 0.375 0.375 0.375 0.375 0.375 0.375 
0.5 0.5 0.5 0.5 0.5 0.5 0.5 0.5 0.5 0.5 0.5 0.5 0.5 0.5 0.5 0.5 0.5 0.5 0.5 0.5 0.5 0.5 0.5 0.5 0.5 0.5 0.5 0.5 0.5 0.5 0.5 0.5 0.5 0.5 0.5 0.5 0.5 0.5 0.5 0.5 0.5 0.5 0.5 0.5 0.5 0.5 0.5 0.5 
0.625 0.625 0.625 0.625 0.625 0.625 0.625 0.625 0.625 0.625 0.625 0.625 0.625 0.625 0.625 0.625 0.625 0.625 0.625 0.625 0.625 0.625 0.625 0.625 0.625 0.625 0.625 0.625 0.625 0.625 0.625 0.625 0.625 0.625 0.625 0.625 0.625 0.625 0.625 0.625 0.625 0.625 0.625 0.625 0.625 0.625 0.625 0.625 
0.75 0.75 0.75 0.75 0.75 0.75 0.75 0.75 0.75 0.75 0.75 0.75 0.75 0.75 0.75 0.75 0.75 0.75 0.75 0.75 0.75 0.75 0.75 0.75 0.75 0.75 0.75 0.75 0.75 0.75 0.75 0.75 0.75 0.75 0.75 0.75 0.75 0.75 0.75 0.75 0.75 0.75 0.75 0.75 0.75 0.75 0.75 0.75 
0.875 0.875 0.875 0.875 0.875 0.875 0.875 0.875 0.875 0.875 0.875 0.875 0.875 0.875 0.875 0.875 0.875 0.875 0.875 0.875 0.875 0.875 0.875 0.875 0.875 0.875 0.875 0.875 0.875 0.875 0.875 0.875 0.875 0.875 0.875 0.875 0.875 0.875 0.875 0.875 0.875 0.875 0.875 0.875 0.875 0.875 0.875 0.875 
1 1 1 1 1 1 1 1 1 1 1 1 1 1 1 1 1 1 1 1 1 1 1 1 1 1 1 1 1 1 1 1 1 1 1 1 1 1 1 1 1 1 1 1 1 1 1 1 
